(set-logic HORN)
(declare-datatypes ((Nat_0 0)) (((Z_0 ) (S_0 (unS_0 Nat_0)))))
(declare-fun diseqNat_0 (Nat_0 Nat_0) Bool)
(declare-fun unS_1 (Nat_0 Nat_0) Bool)
(declare-fun isZ_0 (Nat_0) Bool)
(declare-fun isS_0 (Nat_0) Bool)
(assert (forall ((x_81 Nat_0) (x_80 Nat_0))
	(=> (= x_81 (S_0 x_80))
	    (unS_1 x_80 x_81))))
(assert (isZ_0 Z_0))
(assert (forall ((x_82 Nat_0))
	(isS_0 (S_0 x_82))))
(assert (forall ((x_83 Nat_0))
	(diseqNat_0 Z_0 (S_0 x_83))))
(assert (forall ((x_84 Nat_0))
	(diseqNat_0 (S_0 x_84) Z_0)))
(assert (forall ((x_85 Nat_0) (x_86 Nat_0))
	(=> (diseqNat_0 x_85 x_86)
	    (diseqNat_0 (S_0 x_85) (S_0 x_86)))))
(declare-fun add_0 (Nat_0 Nat_0 Nat_0) Bool)
(declare-fun minus_0 (Nat_0 Nat_0 Nat_0) Bool)
(declare-fun le_0 (Nat_0 Nat_0) Bool)
(declare-fun ge_0 (Nat_0 Nat_0) Bool)
(declare-fun lt_0 (Nat_0 Nat_0) Bool)
(declare-fun gt_0 (Nat_0 Nat_0) Bool)
(declare-fun mult_0 (Nat_0 Nat_0 Nat_0) Bool)
(declare-fun div_0 (Nat_0 Nat_0 Nat_0) Bool)
(declare-fun mod_0 (Nat_0 Nat_0 Nat_0) Bool)
(assert (forall ((y_0 Nat_0))
	(add_0 y_0 Z_0 y_0)))
(assert (forall ((x_74 Nat_0) (y_0 Nat_0) (r_0 Nat_0))
	(=> (add_0 r_0 x_74 y_0)
	    (add_0 (S_0 r_0) (S_0 x_74) y_0))))
(assert (forall ((y_0 Nat_0))
	(minus_0 Z_0 Z_0 y_0)))
(assert (forall ((x_74 Nat_0) (y_0 Nat_0) (r_0 Nat_0))
	(=> (minus_0 r_0 x_74 y_0)
	    (minus_0 (S_0 r_0) (S_0 x_74) y_0))))
(assert (forall ((y_0 Nat_0))
	(le_0 Z_0 y_0)))
(assert (forall ((x_74 Nat_0) (y_0 Nat_0))
	(=> (le_0 x_74 y_0)
	    (le_0 (S_0 x_74) (S_0 y_0)))))
(assert (forall ((y_0 Nat_0))
	(ge_0 y_0 Z_0)))
(assert (forall ((x_74 Nat_0) (y_0 Nat_0))
	(=> (ge_0 x_74 y_0)
	    (ge_0 (S_0 x_74) (S_0 y_0)))))
(assert (forall ((y_0 Nat_0))
	(lt_0 Z_0 (S_0 y_0))))
(assert (forall ((x_74 Nat_0) (y_0 Nat_0))
	(=> (lt_0 x_74 y_0)
	    (lt_0 (S_0 x_74) (S_0 y_0)))))
(assert (forall ((y_0 Nat_0))
	(gt_0 (S_0 y_0) Z_0)))
(assert (forall ((x_74 Nat_0) (y_0 Nat_0))
	(=> (gt_0 x_74 y_0)
	    (gt_0 (S_0 x_74) (S_0 y_0)))))
(assert (forall ((y_0 Nat_0))
	(mult_0 Z_0 Z_0 y_0)))
(assert (forall ((x_74 Nat_0) (y_0 Nat_0) (r_0 Nat_0) (z_1 Nat_0))
	(=>	(and (mult_0 r_0 x_74 y_0)
			(add_0 z_1 r_0 y_0))
		(mult_0 z_1 (S_0 x_74) y_0))))
(assert (forall ((x_74 Nat_0) (y_0 Nat_0))
	(=> (lt_0 x_74 y_0)
	    (div_0 Z_0 x_74 y_0))))
(assert (forall ((x_74 Nat_0) (y_0 Nat_0) (r_0 Nat_0) (z_1 Nat_0))
	(=>	(and (ge_0 x_74 y_0)
			(minus_0 z_1 x_74 y_0)
			(div_0 r_0 z_1 y_0))
		(div_0 (S_0 r_0) x_74 y_0))))
(assert (forall ((x_74 Nat_0) (y_0 Nat_0))
	(=> (lt_0 x_74 y_0)
	    (mod_0 x_74 x_74 y_0))))
(assert (forall ((x_74 Nat_0) (y_0 Nat_0) (r_0 Nat_0) (z_1 Nat_0))
	(=>	(and (ge_0 x_74 y_0)
			(minus_0 z_1 x_74 y_0)
			(mod_0 r_0 z_1 y_0))
		(mod_0 r_0 x_74 y_0))))
(declare-fun and_0 (Bool Bool Bool) Bool)
(declare-fun or_0 (Bool Bool Bool) Bool)
(declare-fun hence_0 (Bool Bool Bool) Bool)
(declare-fun not_0 (Bool Bool) Bool)
(assert (and_0 false false false))
(assert (and_0 false true false))
(assert (and_0 false false true))
(assert (and_0 true true true))
(assert (or_0 false false false))
(assert (or_0 true true false))
(assert (or_0 true false true))
(assert (or_0 true true true))
(assert (hence_0 true false false))
(assert (hence_0 false true false))
(assert (hence_0 true false true))
(assert (hence_0 true true true))
(assert (not_0 true false))
(assert (not_0 false true))
(declare-datatypes ((List_0 0)) (((List_1 (List_2 Nat_0) (List_3 List_0)) (List_4 ))))
(declare-fun diseqList_0 (List_0 List_0) Bool)
(declare-fun List_5 (Nat_0 List_0) Bool)
(declare-fun List_6 (List_0 List_0) Bool)
(declare-fun isList_0 (List_0) Bool)
(declare-fun isList_1 (List_0) Bool)
(assert (forall ((x_89 List_0) (x_87 Nat_0) (x_88 List_0))
	(=> (= x_89 (List_1 x_87 x_88))
	    (List_5 x_87 x_89))))
(assert (forall ((x_89 List_0) (x_87 Nat_0) (x_88 List_0))
	(=> (= x_89 (List_1 x_87 x_88))
	    (List_6 x_88 x_89))))
(assert (forall ((x_91 Nat_0) (x_92 List_0))
	(isList_0 (List_1 x_91 x_92))))
(assert (isList_1 List_4))
(assert (forall ((x_93 Nat_0) (x_94 List_0))
	(diseqList_0 (List_1 x_93 x_94) List_4)))
(assert (forall ((x_95 Nat_0) (x_96 List_0))
	(diseqList_0 List_4 (List_1 x_95 x_96))))
(assert (forall ((x_97 Nat_0) (x_98 List_0) (x_99 Nat_0) (x_100 List_0))
	(=> (diseqNat_0 x_97 x_99)
	    (diseqList_0 (List_1 x_97 x_98) (List_1 x_99 x_100)))))
(assert (forall ((x_97 Nat_0) (x_98 List_0) (x_99 Nat_0) (x_100 List_0))
	(=> (diseqList_0 x_98 x_100)
	    (diseqList_0 (List_1 x_97 x_98) (List_1 x_99 x_100)))))
(declare-datatypes ((MutList_0 0)) (((mutList_1 (curList_0 List_0) (retList_0 List_0)))))
(declare-fun diseqMutList_0 (MutList_0 MutList_0) Bool)
(declare-fun curList_1 (List_0 MutList_0) Bool)
(declare-fun retList_1 (List_0 MutList_0) Bool)
(declare-fun ismutList_0 (MutList_0) Bool)
(assert (forall ((x_103 MutList_0) (x_101 List_0) (x_102 List_0))
	(=> (= x_103 (mutList_1 x_101 x_102))
	    (curList_1 x_101 x_103))))
(assert (forall ((x_103 MutList_0) (x_101 List_0) (x_102 List_0))
	(=> (= x_103 (mutList_1 x_101 x_102))
	    (retList_1 x_102 x_103))))
(assert (forall ((x_104 List_0) (x_105 List_0))
	(ismutList_0 (mutList_1 x_104 x_105))))
(assert (forall ((x_106 List_0) (x_107 List_0) (x_108 List_0) (x_109 List_0))
	(=> (diseqList_0 x_106 x_108)
	    (diseqMutList_0 (mutList_1 x_106 x_107) (mutList_1 x_108 x_109)))))
(assert (forall ((x_106 List_0) (x_107 List_0) (x_108 List_0) (x_109 List_0))
	(=> (diseqList_0 x_107 x_109)
	    (diseqMutList_0 (mutList_1 x_106 x_107) (mutList_1 x_108 x_109)))))
(declare-fun appendabs_0 (MutList_0 List_0 Nat_0 Nat_0 Nat_0) Bool)
(declare-fun appendabs_1 (MutList_0 List_0 Nat_0 Nat_0 Nat_0) Bool)
(declare-fun sum_0 (List_0 Nat_0) Bool)
(declare-fun main_0 (Bool) Bool)
(declare-fun mainabs_0 (List_0 List_0 Bool Bool Nat_0 Nat_0) Bool)
(declare-fun sum_1 (List_0 Nat_0) Bool)
(declare-fun sum_2 (Nat_0 List_0) Bool)
(assert (forall ((x_0 List_0) (x_34 Nat_0))
	(=>	(and (= x_34 Z_0)
			(= x_0 List_4))
		(sum_2 x_34 x_0))))
(assert (forall ((x_0 List_0) (x_35 Nat_0) (x_36 Nat_0) (x_75 Nat_0) (x_110 List_0) (x_111 Nat_0))
	(=>	(and (= x_35 x_75)
			(sum_2 x_36 x_110)
			(diseqList_0 x_0 List_4)
			(add_0 x_75 x_111 x_36)
			(List_6 x_110 x_0)
			(List_5 x_111 x_0))
		(sum_2 x_35 x_0))))
(assert (forall ((x_1 List_0) (x_2 MutList_0) (c_0 Nat_0) (c_1 Nat_0) (c_2 Nat_0) (c_3 Nat_0) (c_4 Nat_0) (c_5 Nat_0) (x_37 Nat_0) (x_38 Nat_0) (x_39 Nat_0) (x_40 Nat_0) (x_41 Nat_0) (x_42 Nat_0) (x_112 List_0) (x_113 List_0) (x_114 List_0) (x_115 List_0) (x_116 List_0) (x_117 List_0) (x_118 List_0) (x_119 List_0))
	(=>	(and (= x_37 c_0)
			(sum_0 x_1 c_0)
			(= x_38 c_1)
			(sum_0 x_112 c_1)
			(= x_39 c_2)
			(sum_0 x_113 c_2)
			(= x_40 c_3)
			(sum_0 x_1 c_3)
			(= x_41 c_4)
			(sum_0 x_114 c_4)
			(= x_42 c_5)
			(sum_0 x_115 c_5)
			(appendabs_1 x_2 x_1 c_3 c_4 c_5)
			(sum_2 x_37 x_1)
			(sum_2 x_38 x_116)
			(sum_2 x_39 x_117)
			(sum_2 x_40 x_1)
			(sum_2 x_41 x_118)
			(sum_2 x_42 x_119)
			(curList_1 x_112 x_2)
			(retList_1 x_113 x_2)
			(curList_1 x_114 x_2)
			(retList_1 x_115 x_2)
			(curList_1 x_116 x_2)
			(retList_1 x_117 x_2)
			(curList_1 x_118 x_2)
			(retList_1 x_119 x_2))
		(appendabs_0 x_2 x_1 c_0 c_1 c_2))))
(assert (forall ((x_3 List_0) (x_4 Nat_0) (x_5 List_0) (x_6 List_0) (x_7 List_0) (x_8 MutList_0) (c_6 Nat_0) (c_7 Nat_0) (c_8 Nat_0) (c_9 Nat_0) (c_10 Nat_0) (c_11 Nat_0) (x_43 Nat_0) (x_44 Nat_0) (x_45 Nat_0) (x_46 Nat_0) (x_47 Nat_0) (x_48 Nat_0) (x_123 List_0) (x_120 List_0) (x_121 List_0) (x_122 List_0))
	(=>	(and (retList_1 x_123 x_8)
			(= x_43 c_6)
			(sum_0 x_7 c_6)
			(= x_44 c_7)
			(sum_0 (List_1 x_4 x_3) c_7)
			(= x_45 c_8)
			(sum_0 x_120 c_8)
			(= x_46 c_9)
			(sum_0 x_7 c_9)
			(= x_47 c_10)
			(sum_0 x_3 c_10)
			(= x_48 c_11)
			(sum_0 x_5 c_11)
			(appendabs_0 (mutList_1 x_3 x_5) x_7 c_9 c_10 c_11)
			(= x_6 x_5)
			(= x_121 (List_1 x_4 x_6))
			(sum_2 x_43 x_7)
			(sum_2 x_44 (List_1 x_4 x_3))
			(sum_2 x_45 x_122)
			(sum_2 x_46 x_7)
			(sum_2 x_47 x_3)
			(sum_2 x_48 x_5)
			(retList_1 x_120 x_8)
			(retList_1 x_121 x_8)
			(retList_1 x_122 x_8))
		(appendabs_1 (mutList_1 (List_1 x_4 x_3) x_123) x_7 c_6 c_7 c_8))))
(assert (forall ((x_9 List_0) (x_10 MutList_0) (c_12 Nat_0) (c_13 Nat_0) (c_14 Nat_0) (x_49 Nat_0) (x_50 Nat_0) (x_51 Nat_0) (x_127 List_0) (x_124 List_0) (x_125 List_0) (x_126 List_0))
	(=>	(and (retList_1 x_127 x_10)
			(= x_49 c_12)
			(sum_0 x_9 c_12)
			(= x_50 c_13)
			(sum_0 List_4 c_13)
			(= x_51 c_14)
			(sum_0 x_124 c_14)
			(= x_125 x_9)
			(sum_2 x_49 x_9)
			(sum_2 x_50 List_4)
			(sum_2 x_51 x_126)
			(retList_1 x_124 x_10)
			(retList_1 x_125 x_10)
			(retList_1 x_126 x_10))
		(appendabs_1 (mutList_1 List_4 x_127) x_9 c_12 c_13 c_14))))
(assert (forall ((x_11 Bool) (x_12 Nat_0) (x_13 Nat_0) (x_14 Nat_0) (x_15 List_0) (x_16 List_0) (x_17 List_0) (x_18 List_0) (x_19 List_0) (c_15 Nat_0) (c_16 Nat_0) (c_17 Nat_0) (c_18 Nat_0) (c_19 Nat_0) (x_52 Nat_0) (x_53 Nat_0) (x_54 Nat_0) (x_55 Nat_0) (x_56 Nat_0) (x_57 Nat_0) (x_58 Nat_0) (x_59 Nat_0) (x_72 Bool) (x_76 Nat_0))
	(=>	(and (= x_52 c_15)
			(sum_0 x_16 c_15)
			(= x_53 c_16)
			(sum_0 x_15 c_16)
			(= x_54 c_17)
			(sum_0 x_18 c_17)
			(= x_55 c_18)
			(sum_0 x_17 c_18)
			(= x_56 c_19)
			(sum_0 x_19 c_19)
			(sum_0 x_15 x_12)
			(sum_0 x_16 x_13)
			(appendabs_0 (mutList_1 x_15 x_18) x_16 c_15 c_16 c_17)
			(sum_0 x_17 x_14)
			(mainabs_0 x_17 x_19 x_72 x_11 c_18 c_19)
			(= x_14 x_76)
			(= x_57 x_12)
			(= x_58 x_13)
			(= x_59 x_14)
			(= x_17 x_18)
			(sum_2 x_52 x_16)
			(sum_2 x_53 x_15)
			(sum_2 x_54 x_18)
			(sum_2 x_55 x_17)
			(sum_2 x_56 x_19)
			(sum_2 x_57 x_15)
			(sum_2 x_58 x_16)
			(sum_2 x_59 x_17)
			(not_0 x_72 true)
			(add_0 x_76 x_12 x_13))
		(main_0 x_11))))
(assert (forall ((x_11 Bool) (x_12 Nat_0) (x_13 Nat_0) (x_14 Nat_0) (x_15 List_0) (x_16 List_0) (x_17 List_0) (x_18 List_0) (x_19 List_0) (c_15 Nat_0) (c_16 Nat_0) (c_17 Nat_0) (c_18 Nat_0) (c_19 Nat_0) (x_60 Nat_0) (x_61 Nat_0) (x_62 Nat_0) (x_63 Nat_0) (x_64 Nat_0) (x_65 Nat_0) (x_66 Nat_0) (x_67 Nat_0) (x_73 Bool) (x_77 Nat_0))
	(=>	(and (= x_60 c_15)
			(sum_0 x_16 c_15)
			(= x_61 c_16)
			(sum_0 x_15 c_16)
			(= x_62 c_17)
			(sum_0 x_18 c_17)
			(= x_63 c_18)
			(sum_0 x_17 c_18)
			(= x_64 c_19)
			(sum_0 x_19 c_19)
			(sum_0 x_15 x_12)
			(sum_0 x_16 x_13)
			(appendabs_0 (mutList_1 x_15 x_18) x_16 c_15 c_16 c_17)
			(sum_0 x_17 x_14)
			(mainabs_0 x_17 x_19 x_73 x_11 c_18 c_19)
			(diseqNat_0 x_14 x_77)
			(= x_65 x_12)
			(= x_66 x_13)
			(= x_67 x_14)
			(= x_17 x_18)
			(sum_2 x_60 x_16)
			(sum_2 x_61 x_15)
			(sum_2 x_62 x_18)
			(sum_2 x_63 x_17)
			(sum_2 x_64 x_19)
			(sum_2 x_65 x_15)
			(sum_2 x_66 x_16)
			(sum_2 x_67 x_17)
			(not_0 x_73 false)
			(add_0 x_77 x_12 x_13))
		(main_0 x_11))))
(assert (forall ((x_20 Bool) (x_21 List_0) (x_22 List_0) (c_20 Nat_0) (c_21 Nat_0) (x_68 Nat_0) (x_69 Nat_0))
	(=>	(and (= x_68 c_20)
			(sum_0 x_22 c_20)
			(= x_69 c_21)
			(sum_0 x_21 c_21)
			(= x_20 false)
			(sum_2 x_68 x_22)
			(sum_2 x_69 x_21))
		(mainabs_0 x_22 x_21 false x_20 c_20 c_21))))
(assert (forall ((x_23 Bool) (x_24 List_0) (x_25 List_0) (c_22 Nat_0) (c_23 Nat_0) (x_70 Nat_0) (x_71 Nat_0))
	(=>	(and (= x_70 c_22)
			(sum_0 x_25 c_22)
			(= x_71 c_23)
			(sum_0 x_24 c_23)
			(= x_23 true)
			(sum_2 x_70 x_25)
			(sum_2 x_71 x_24))
		(mainabs_0 x_25 x_24 true x_23 c_22 c_23))))
(assert (forall ((x_26 List_0) (x_27 Nat_0))
	(=> (sum_1 x_26 x_27)
	    (sum_0 x_26 x_27))))
(assert (forall ((x_28 Nat_0) (x_29 Nat_0) (x_30 Nat_0) (x_31 List_0) (x_78 Nat_0))
	(=>	(and (sum_0 x_31 x_29)
			(= x_28 x_78)
			(add_0 x_78 x_30 x_29))
		(sum_1 (List_1 x_30 x_31) x_28))))
(assert (forall ((x_32 Nat_0))
	(=> (= x_32 Z_0)
	    (sum_1 List_4 x_32))))
(assert (forall ((x_33 Nat_0))
	(=> (main_0 true)
	    false)))
(check-sat)
